% ----DATA VARIABLES----

t=10;%number of attributes
k=5;%max length of the support set
n=12;%number of positive instances
m=12;%number of negative instances
c=3;%number of atMostOne Constraints

% ----OMEGAS----

omegap= [| 1, 0, 0, 1, 0, 0, 1, 1, 1, 1|
 0, 0, 0, 1, 0, 0, 1, 1, 1, 0|
 1, 1, 0, 1, 0, 0, 0, 1, 0, 1|
 1, 1, 0, 0, 0, 1, 1, 1, 0, 1|
 0, 1, 1, 0, 1, 0, 0, 0, 1, 1|
 0, 0, 1, 0, 1, 1, 0, 1, 1, 1|
 1, 0, 0, 1, 1, 1, 1, 1, 1, 0|
 1, 0, 1, 0, 1, 0, 1, 0, 1, 1|
 1, 0, 0, 1, 1, 1, 0, 0, 1, 1|
 0, 0, 0, 0, 0, 1, 0, 0, 0, 0|
 1, 0, 1, 1, 1, 1, 1, 1, 1, 0|
 1, 0, 1, 0, 1, 1, 0, 0, 0, 1|];

omegan= [| 0, 1, 0, 1, 0, 0, 0, 1, 1, 1|
 1, 1, 0, 0, 0, 0, 1, 1, 1, 1|
 0, 0, 0, 0, 0, 1, 1, 0, 0, 1|
 0, 1, 1, 0, 1, 1, 1, 0, 0, 0|
 1, 0, 0, 1, 1, 0, 1, 1, 1, 1|
 0, 1, 0, 1, 0, 1, 1, 0, 0, 1|
 0, 0, 0, 0, 1, 0, 0, 1, 0, 1|
 0, 0, 1, 0, 0, 1, 1, 1, 1, 1|
 1, 1, 0, 1, 0, 1, 0, 1, 1, 0|
 1, 1, 1, 1, 0, 0, 0, 1, 1, 1|
 0, 0, 1, 0, 1, 0, 1, 0, 1, 0|
 1, 1, 0, 1, 1, 1, 0, 1, 1, 1|];

% ----CONSTRAINS----

atMostOne=[{3}, {9, 4}, {4, 1, 1}];